p cnf 108 1145 
1 2 3 0
4 5 6 0
7 8 9 0
10 11 12 0
13 14 15 0
16 17 18 0
19 20 21 0
22 23 24 0
25 26 27 0
28 29 30 0
31 32 33 0
34 35 36 0
37 38 39 0
40 41 42 0
43 44 45 0
46 47 48 0
49 50 51 0
52 53 54 0
55 56 57 0
58 59 60 0
61 62 63 0
64 65 66 0
67 68 69 0
70 71 72 0
73 74 75 0
76 77 78 0
79 80 81 0
82 83 84 0
85 86 87 0
88 89 90 0
91 92 93 0
94 95 96 0
97 98 99 0
100 101 102 0
103 104 105 0
106 107 108 0
-1 -2 0
-1 -3 0
-2 -3 0
-4 -5 0
-4 -6 0
-5 -6 0
-7 -8 0
-7 -9 0
-8 -9 0
-10 -11 0
-10 -12 0
-11 -12 0
-13 -14 0
-13 -15 0
-14 -15 0
-16 -17 0
-16 -18 0
-17 -18 0
-19 -20 0
-19 -21 0
-20 -21 0
-22 -23 0
-22 -24 0
-23 -24 0
-25 -26 0
-25 -27 0
-26 -27 0
-28 -29 0
-28 -30 0
-29 -30 0
-31 -32 0
-31 -33 0
-32 -33 0
-34 -35 0
-34 -36 0
-35 -36 0
-37 -38 0
-37 -39 0
-38 -39 0
-40 -41 0
-40 -42 0
-41 -42 0
-43 -44 0
-43 -45 0
-44 -45 0
-46 -47 0
-46 -48 0
-47 -48 0
-49 -50 0
-49 -51 0
-50 -51 0
-52 -53 0
-52 -54 0
-53 -54 0
-55 -56 0
-55 -57 0
-56 -57 0
-58 -59 0
-58 -60 0
-59 -60 0
-61 -62 0
-61 -63 0
-62 -63 0
-64 -65 0
-64 -66 0
-65 -66 0
-67 -68 0
-67 -69 0
-68 -69 0
-70 -71 0
-70 -72 0
-71 -72 0
-73 -74 0
-73 -75 0
-74 -75 0
-76 -77 0
-76 -78 0
-77 -78 0
-79 -80 0
-79 -81 0
-80 -81 0
-82 -83 0
-82 -84 0
-83 -84 0
-85 -86 0
-85 -87 0
-86 -87 0
-88 -89 0
-88 -90 0
-89 -90 0
-91 -92 0
-91 -93 0
-92 -93 0
-94 -95 0
-94 -96 0
-95 -96 0
-97 -98 0
-97 -99 0
-98 -99 0
-100 -101 0
-100 -102 0
-101 -102 0
-103 -104 0
-103 -105 0
-104 -105 0
-106 -107 0
-106 -108 0
-107 -108 0
1 4 7 10 13 16 19 22 25 28 31 34 37 40 43 46 49 52 55 58 61 64 67 70 73 76 79 82 85 88 91 94 97 100 103 106 0
2 5 8 11 14 17 20 23 26 29 32 35 38 41 44 47 50 53 56 59 62 65 68 71 74 77 80 83 86 89 92 95 98 101 104 107 0
3 6 9 12 15 18 21 24 27 30 33 36 39 42 45 48 51 54 57 60 63 66 69 72 75 78 81 84 87 90 93 96 99 102 105 108 0
-1 -4 -8 -11 -15 -18 -19 -22 -26 -29 -33 -36 -37 -40 -44 -47 -51 -54 -55 -58 -62 -65 -69 -72 -73 -76 -80 -83 -87 -90 -91 -94 -98 -101 -105 -108 0
-1 -4 -7 -10 -13 -16 -19 -22 -25 -28 -31 -34 -38 -41 -44 -47 -50 -53 -56 -59 -62 -65 -68 -71 -75 -78 -81 -84 -87 -90 -93 -96 -99 -102 -105 -108 0
-2 -1 0
-3 -1 0
-3 -2 0
-2 -4 0
-3 -4 0
-3 -5 0
-2 -7 0
-3 -7 0
-3 -8 0
-2 -10 0
-3 -10 0
-3 -11 0
-2 -13 0
-3 -13 0
-3 -14 0
-2 -16 0
-3 -16 0
-3 -17 0
-5 -1 0
-6 -1 0
-5 -3 0
-5 -4 0
-6 -4 0
-5 -6 0
-5 -7 0
-6 -7 0
-5 -9 0
-5 -10 0
-6 -10 0
-5 -12 0
-5 -13 0
-6 -13 0
-5 -15 0
-5 -16 0
-6 -16 0
-5 -18 0
-9 -1 0
-7 -2 0
-9 -2 0
-9 -4 0
-7 -5 0
-9 -5 0
-9 -7 0
-7 -8 0
-9 -8 0
-9 -10 0
-7 -11 0
-9 -11 0
-9 -13 0
-7 -14 0
-9 -14 0
-9 -16 0
-7 -17 0
-9 -17 0
-10 -2 0
-12 -2 0
-10 -3 0
-10 -5 0
-12 -5 0
-10 -6 0
-10 -8 0
-12 -8 0
-10 -9 0
-10 -11 0
-12 -11 0
-10 -12 0
-10 -14 0
-12 -14 0
-10 -15 0
-10 -17 0
-12 -17 0
-10 -18 0
-14 -1 0
-13 -3 0
-14 -3 0
-14 -4 0
-13 -6 0
-14 -6 0
-14 -7 0
-13 -9 0
-14 -9 0
-14 -10 0
-13 -12 0
-14 -12 0
-14 -13 0
-13 -15 0
-14 -15 0
-14 -16 0
-13 -18 0
-14 -18 0
-16 -2 0
-16 -3 0
-17 -3 0
-16 -5 0
-16 -6 0
-17 -6 0
-16 -8 0
-16 -9 0
-17 -9 0
-16 -11 0
-16 -12 0
-17 -12 0
-16 -14 0
-16 -15 0
-17 -15 0
-16 -17 0
-16 -18 0
-17 -18 0
-20 -19 0
-21 -19 0
-21 -20 0
-20 -22 0
-21 -22 0
-21 -23 0
-20 -25 0
-21 -25 0
-21 -26 0
-20 -28 0
-21 -28 0
-21 -29 0
-20 -31 0
-21 -31 0
-21 -32 0
-20 -34 0
-21 -34 0
-21 -35 0
-23 -19 0
-24 -19 0
-23 -21 0
-23 -22 0
-24 -22 0
-23 -24 0
-23 -25 0
-24 -25 0
-23 -27 0
-23 -28 0
-24 -28 0
-23 -30 0
-23 -31 0
-24 -31 0
-23 -33 0
-23 -34 0
-24 -34 0
-23 -36 0
-27 -19 0
-25 -20 0
-27 -20 0
-27 -22 0
-25 -23 0
-27 -23 0
-27 -25 0
-25 -26 0
-27 -26 0
-27 -28 0
-25 -29 0
-27 -29 0
-27 -31 0
-25 -32 0
-27 -32 0
-27 -34 0
-25 -35 0
-27 -35 0
-28 -20 0
-30 -20 0
-28 -21 0
-28 -23 0
-30 -23 0
-28 -24 0
-28 -26 0
-30 -26 0
-28 -27 0
-28 -29 0
-30 -29 0
-28 -30 0
-28 -32 0
-30 -32 0
-28 -33 0
-28 -35 0
-30 -35 0
-28 -36 0
-32 -19 0
-31 -21 0
-32 -21 0
-32 -22 0
-31 -24 0
-32 -24 0
-32 -25 0
-31 -27 0
-32 -27 0
-32 -28 0
-31 -30 0
-32 -30 0
-32 -31 0
-31 -33 0
-32 -33 0
-32 -34 0
-31 -36 0
-32 -36 0
-34 -20 0
-34 -21 0
-35 -21 0
-34 -23 0
-34 -24 0
-35 -24 0
-34 -26 0
-34 -27 0
-35 -27 0
-34 -29 0
-34 -30 0
-35 -30 0
-34 -32 0
-34 -33 0
-35 -33 0
-34 -35 0
-34 -36 0
-35 -36 0
-38 -37 0
-39 -37 0
-39 -38 0
-38 -40 0
-39 -40 0
-39 -41 0
-38 -43 0
-39 -43 0
-39 -44 0
-38 -46 0
-39 -46 0
-39 -47 0
-38 -49 0
-39 -49 0
-39 -50 0
-38 -52 0
-39 -52 0
-39 -53 0
-41 -37 0
-42 -37 0
-41 -39 0
-41 -40 0
-42 -40 0
-41 -42 0
-41 -43 0
-42 -43 0
-41 -45 0
-41 -46 0
-42 -46 0
-41 -48 0
-41 -49 0
-42 -49 0
-41 -51 0
-41 -52 0
-42 -52 0
-41 -54 0
-45 -37 0
-43 -38 0
-45 -38 0
-45 -40 0
-43 -41 0
-45 -41 0
-45 -43 0
-43 -44 0
-45 -44 0
-45 -46 0
-43 -47 0
-45 -47 0
-45 -49 0
-43 -50 0
-45 -50 0
-45 -52 0
-43 -53 0
-45 -53 0
-46 -38 0
-48 -38 0
-46 -39 0
-46 -41 0
-48 -41 0
-46 -42 0
-46 -44 0
-48 -44 0
-46 -45 0
-46 -47 0
-48 -47 0
-46 -48 0
-46 -50 0
-48 -50 0
-46 -51 0
-46 -53 0
-48 -53 0
-46 -54 0
-50 -37 0
-49 -39 0
-50 -39 0
-50 -40 0
-49 -42 0
-50 -42 0
-50 -43 0
-49 -45 0
-50 -45 0
-50 -46 0
-49 -48 0
-50 -48 0
-50 -49 0
-49 -51 0
-50 -51 0
-50 -52 0
-49 -54 0
-50 -54 0
-52 -38 0
-52 -39 0
-53 -39 0
-52 -41 0
-52 -42 0
-53 -42 0
-52 -44 0
-52 -45 0
-53 -45 0
-52 -47 0
-52 -48 0
-53 -48 0
-52 -50 0
-52 -51 0
-53 -51 0
-52 -53 0
-52 -54 0
-53 -54 0
-56 -55 0
-57 -55 0
-57 -56 0
-56 -58 0
-57 -58 0
-57 -59 0
-56 -61 0
-57 -61 0
-57 -62 0
-56 -64 0
-57 -64 0
-57 -65 0
-56 -67 0
-57 -67 0
-57 -68 0
-56 -70 0
-57 -70 0
-57 -71 0
-59 -55 0
-60 -55 0
-59 -57 0
-59 -58 0
-60 -58 0
-59 -60 0
-59 -61 0
-60 -61 0
-59 -63 0
-59 -64 0
-60 -64 0
-59 -66 0
-59 -67 0
-60 -67 0
-59 -69 0
-59 -70 0
-60 -70 0
-59 -72 0
-63 -55 0
-61 -56 0
-63 -56 0
-63 -58 0
-61 -59 0
-63 -59 0
-63 -61 0
-61 -62 0
-63 -62 0
-63 -64 0
-61 -65 0
-63 -65 0
-63 -67 0
-61 -68 0
-63 -68 0
-63 -70 0
-61 -71 0
-63 -71 0
-64 -56 0
-66 -56 0
-64 -57 0
-64 -59 0
-66 -59 0
-64 -60 0
-64 -62 0
-66 -62 0
-64 -63 0
-64 -65 0
-66 -65 0
-64 -66 0
-64 -68 0
-66 -68 0
-64 -69 0
-64 -71 0
-66 -71 0
-64 -72 0
-68 -55 0
-67 -57 0
-68 -57 0
-68 -58 0
-67 -60 0
-68 -60 0
-68 -61 0
-67 -63 0
-68 -63 0
-68 -64 0
-67 -66 0
-68 -66 0
-68 -67 0
-67 -69 0
-68 -69 0
-68 -70 0
-67 -72 0
-68 -72 0
-70 -56 0
-70 -57 0
-71 -57 0
-70 -59 0
-70 -60 0
-71 -60 0
-70 -62 0
-70 -63 0
-71 -63 0
-70 -65 0
-70 -66 0
-71 -66 0
-70 -68 0
-70 -69 0
-71 -69 0
-70 -71 0
-70 -72 0
-71 -72 0
-74 -73 0
-75 -73 0
-75 -74 0
-74 -76 0
-75 -76 0
-75 -77 0
-74 -79 0
-75 -79 0
-75 -80 0
-74 -82 0
-75 -82 0
-75 -83 0
-74 -85 0
-75 -85 0
-75 -86 0
-74 -88 0
-75 -88 0
-75 -89 0
-77 -73 0
-78 -73 0
-77 -75 0
-77 -76 0
-78 -76 0
-77 -78 0
-77 -79 0
-78 -79 0
-77 -81 0
-77 -82 0
-78 -82 0
-77 -84 0
-77 -85 0
-78 -85 0
-77 -87 0
-77 -88 0
-78 -88 0
-77 -90 0
-81 -73 0
-79 -74 0
-81 -74 0
-81 -76 0
-79 -77 0
-81 -77 0
-81 -79 0
-79 -80 0
-81 -80 0
-81 -82 0
-79 -83 0
-81 -83 0
-81 -85 0
-79 -86 0
-81 -86 0
-81 -88 0
-79 -89 0
-81 -89 0
-82 -74 0
-84 -74 0
-82 -75 0
-82 -77 0
-84 -77 0
-82 -78 0
-82 -80 0
-84 -80 0
-82 -81 0
-82 -83 0
-84 -83 0
-82 -84 0
-82 -86 0
-84 -86 0
-82 -87 0
-82 -89 0
-84 -89 0
-82 -90 0
-86 -73 0
-85 -75 0
-86 -75 0
-86 -76 0
-85 -78 0
-86 -78 0
-86 -79 0
-85 -81 0
-86 -81 0
-86 -82 0
-85 -84 0
-86 -84 0
-86 -85 0
-85 -87 0
-86 -87 0
-86 -88 0
-85 -90 0
-86 -90 0
-88 -74 0
-88 -75 0
-89 -75 0
-88 -77 0
-88 -78 0
-89 -78 0
-88 -80 0
-88 -81 0
-89 -81 0
-88 -83 0
-88 -84 0
-89 -84 0
-88 -86 0
-88 -87 0
-89 -87 0
-88 -89 0
-88 -90 0
-89 -90 0
-92 -91 0
-93 -91 0
-93 -92 0
-92 -94 0
-93 -94 0
-93 -95 0
-92 -97 0
-93 -97 0
-93 -98 0
-92 -100 0
-93 -100 0
-93 -101 0
-92 -103 0
-93 -103 0
-93 -104 0
-92 -106 0
-93 -106 0
-93 -107 0
-95 -91 0
-96 -91 0
-95 -93 0
-95 -94 0
-96 -94 0
-95 -96 0
-95 -97 0
-96 -97 0
-95 -99 0
-95 -100 0
-96 -100 0
-95 -102 0
-95 -103 0
-96 -103 0
-95 -105 0
-95 -106 0
-96 -106 0
-95 -108 0
-99 -91 0
-97 -92 0
-99 -92 0
-99 -94 0
-97 -95 0
-99 -95 0
-99 -97 0
-97 -98 0
-99 -98 0
-99 -100 0
-97 -101 0
-99 -101 0
-99 -103 0
-97 -104 0
-99 -104 0
-99 -106 0
-97 -107 0
-99 -107 0
-100 -92 0
-102 -92 0
-100 -93 0
-100 -95 0
-102 -95 0
-100 -96 0
-100 -98 0
-102 -98 0
-100 -99 0
-100 -101 0
-102 -101 0
-100 -102 0
-100 -104 0
-102 -104 0
-100 -105 0
-100 -107 0
-102 -107 0
-100 -108 0
-104 -91 0
-103 -93 0
-104 -93 0
-104 -94 0
-103 -96 0
-104 -96 0
-104 -97 0
-103 -99 0
-104 -99 0
-104 -100 0
-103 -102 0
-104 -102 0
-104 -103 0
-103 -105 0
-104 -105 0
-104 -106 0
-103 -108 0
-104 -108 0
-106 -92 0
-106 -93 0
-107 -93 0
-106 -95 0
-106 -96 0
-107 -96 0
-106 -98 0
-106 -99 0
-107 -99 0
-106 -101 0
-106 -102 0
-107 -102 0
-106 -104 0
-106 -105 0
-107 -105 0
-106 -107 0
-106 -108 0
-107 -108 0
-2 -1 0
-3 -1 0
-3 -2 0
-2 -19 0
-3 -19 0
-3 -20 0
-2 -37 0
-3 -37 0
-3 -38 0
-2 -55 0
-3 -55 0
-3 -56 0
-2 -73 0
-3 -73 0
-3 -74 0
-2 -91 0
-3 -91 0
-3 -92 0
-5 -4 0
-6 -4 0
-6 -5 0
-5 -22 0
-6 -22 0
-6 -23 0
-5 -40 0
-6 -40 0
-6 -41 0
-5 -58 0
-6 -58 0
-6 -59 0
-5 -76 0
-6 -76 0
-6 -77 0
-5 -94 0
-6 -94 0
-6 -95 0
-8 -7 0
-9 -7 0
-9 -8 0
-8 -25 0
-9 -25 0
-9 -26 0
-8 -43 0
-9 -43 0
-9 -44 0
-8 -61 0
-9 -61 0
-9 -62 0
-8 -79 0
-9 -79 0
-9 -80 0
-8 -97 0
-9 -97 0
-9 -98 0
-11 -10 0
-12 -10 0
-12 -11 0
-11 -28 0
-12 -28 0
-12 -29 0
-11 -46 0
-12 -46 0
-12 -47 0
-11 -64 0
-12 -64 0
-12 -65 0
-11 -82 0
-12 -82 0
-12 -83 0
-11 -100 0
-12 -100 0
-12 -101 0
-14 -13 0
-15 -13 0
-15 -14 0
-14 -31 0
-15 -31 0
-15 -32 0
-14 -49 0
-15 -49 0
-15 -50 0
-14 -67 0
-15 -67 0
-15 -68 0
-14 -85 0
-15 -85 0
-15 -86 0
-14 -103 0
-15 -103 0
-15 -104 0
-17 -16 0
-18 -16 0
-18 -17 0
-17 -34 0
-18 -34 0
-18 -35 0
-17 -52 0
-18 -52 0
-18 -53 0
-17 -70 0
-18 -70 0
-18 -71 0
-17 -88 0
-18 -88 0
-18 -89 0
-17 -106 0
-18 -106 0
-18 -107 0
-20 -1 0
-21 -1 0
-20 -3 0
-20 -19 0
-21 -19 0
-20 -21 0
-20 -37 0
-21 -37 0
-20 -39 0
-20 -55 0
-21 -55 0
-20 -57 0
-20 -73 0
-21 -73 0
-20 -75 0
-20 -91 0
-21 -91 0
-20 -93 0
-23 -4 0
-24 -4 0
-23 -6 0
-23 -22 0
-24 -22 0
-23 -24 0
-23 -40 0
-24 -40 0
-23 -42 0
-23 -58 0
-24 -58 0
-23 -60 0
-23 -76 0
-24 -76 0
-23 -78 0
-23 -94 0
-24 -94 0
-23 -96 0
-26 -7 0
-27 -7 0
-26 -9 0
-26 -25 0
-27 -25 0
-26 -27 0
-26 -43 0
-27 -43 0
-26 -45 0
-26 -61 0
-27 -61 0
-26 -63 0
-26 -79 0
-27 -79 0
-26 -81 0
-26 -97 0
-27 -97 0
-26 -99 0
-29 -10 0
-30 -10 0
-29 -12 0
-29 -28 0
-30 -28 0
-29 -30 0
-29 -46 0
-30 -46 0
-29 -48 0
-29 -64 0
-30 -64 0
-29 -66 0
-29 -82 0
-30 -82 0
-29 -84 0
-29 -100 0
-30 -100 0
-29 -102 0
-32 -13 0
-33 -13 0
-32 -15 0
-32 -31 0
-33 -31 0
-32 -33 0
-32 -49 0
-33 -49 0
-32 -51 0
-32 -67 0
-33 -67 0
-32 -69 0
-32 -85 0
-33 -85 0
-32 -87 0
-32 -103 0
-33 -103 0
-32 -105 0
-35 -16 0
-36 -16 0
-35 -18 0
-35 -34 0
-36 -34 0
-35 -36 0
-35 -52 0
-36 -52 0
-35 -54 0
-35 -70 0
-36 -70 0
-35 -72 0
-35 -88 0
-36 -88 0
-35 -90 0
-35 -106 0
-36 -106 0
-35 -108 0
-39 -1 0
-37 -2 0
-39 -2 0
-39 -19 0
-37 -20 0
-39 -20 0
-39 -37 0
-37 -38 0
-39 -38 0
-39 -55 0
-37 -56 0
-39 -56 0
-39 -73 0
-37 -74 0
-39 -74 0
-39 -91 0
-37 -92 0
-39 -92 0
-42 -4 0
-40 -5 0
-42 -5 0
-42 -22 0
-40 -23 0
-42 -23 0
-42 -40 0
-40 -41 0
-42 -41 0
-42 -58 0
-40 -59 0
-42 -59 0
-42 -76 0
-40 -77 0
-42 -77 0
-42 -94 0
-40 -95 0
-42 -95 0
-45 -7 0
-43 -8 0
-45 -8 0
-45 -25 0
-43 -26 0
-45 -26 0
-45 -43 0
-43 -44 0
-45 -44 0
-45 -61 0
-43 -62 0
-45 -62 0
-45 -79 0
-43 -80 0
-45 -80 0
-45 -97 0
-43 -98 0
-45 -98 0
-48 -10 0
-46 -11 0
-48 -11 0
-48 -28 0
-46 -29 0
-48 -29 0
-48 -46 0
-46 -47 0
-48 -47 0
-48 -64 0
-46 -65 0
-48 -65 0
-48 -82 0
-46 -83 0
-48 -83 0
-48 -100 0
-46 -101 0
-48 -101 0
-51 -13 0
-49 -14 0
-51 -14 0
-51 -31 0
-49 -32 0
-51 -32 0
-51 -49 0
-49 -50 0
-51 -50 0
-51 -67 0
-49 -68 0
-51 -68 0
-51 -85 0
-49 -86 0
-51 -86 0
-51 -103 0
-49 -104 0
-51 -104 0
-54 -16 0
-52 -17 0
-54 -17 0
-54 -34 0
-52 -35 0
-54 -35 0
-54 -52 0
-52 -53 0
-54 -53 0
-54 -70 0
-52 -71 0
-54 -71 0
-54 -88 0
-52 -89 0
-54 -89 0
-54 -106 0
-52 -107 0
-54 -107 0
-55 -2 0
-57 -2 0
-55 -3 0
-55 -20 0
-57 -20 0
-55 -21 0
-55 -38 0
-57 -38 0
-55 -39 0
-55 -56 0
-57 -56 0
-55 -57 0
-55 -74 0
-57 -74 0
-55 -75 0
-55 -92 0
-57 -92 0
-55 -93 0
-58 -5 0
-60 -5 0
-58 -6 0
-58 -23 0
-60 -23 0
-58 -24 0
-58 -41 0
-60 -41 0
-58 -42 0
-58 -59 0
-60 -59 0
-58 -60 0
-58 -77 0
-60 -77 0
-58 -78 0
-58 -95 0
-60 -95 0
-58 -96 0
-61 -8 0
-63 -8 0
-61 -9 0
-61 -26 0
-63 -26 0
-61 -27 0
-61 -44 0
-63 -44 0
-61 -45 0
-61 -62 0
-63 -62 0
-61 -63 0
-61 -80 0
-63 -80 0
-61 -81 0
-61 -98 0
-63 -98 0
-61 -99 0
-64 -11 0
-66 -11 0
-64 -12 0
-64 -29 0
-66 -29 0
-64 -30 0
-64 -47 0
-66 -47 0
-64 -48 0
-64 -65 0
-66 -65 0
-64 -66 0
-64 -83 0
-66 -83 0
-64 -84 0
-64 -101 0
-66 -101 0
-64 -102 0
-67 -14 0
-69 -14 0
-67 -15 0
-67 -32 0
-69 -32 0
-67 -33 0
-67 -50 0
-69 -50 0
-67 -51 0
-67 -68 0
-69 -68 0
-67 -69 0
-67 -86 0
-69 -86 0
-67 -87 0
-67 -104 0
-69 -104 0
-67 -105 0
-70 -17 0
-72 -17 0
-70 -18 0
-70 -35 0
-72 -35 0
-70 -36 0
-70 -53 0
-72 -53 0
-70 -54 0
-70 -71 0
-72 -71 0
-70 -72 0
-70 -89 0
-72 -89 0
-70 -90 0
-70 -107 0
-72 -107 0
-70 -108 0
-74 -1 0
-73 -3 0
-74 -3 0
-74 -19 0
-73 -21 0
-74 -21 0
-74 -37 0
-73 -39 0
-74 -39 0
-74 -55 0
-73 -57 0
-74 -57 0
-74 -73 0
-73 -75 0
-74 -75 0
-74 -91 0
-73 -93 0
-74 -93 0
-77 -4 0
-76 -6 0
-77 -6 0
-77 -22 0
-76 -24 0
-77 -24 0
-77 -40 0
-76 -42 0
-77 -42 0
-77 -58 0
-76 -60 0
-77 -60 0
-77 -76 0
-76 -78 0
-77 -78 0
-77 -94 0
-76 -96 0
-77 -96 0
-80 -7 0
-79 -9 0
-80 -9 0
-80 -25 0
-79 -27 0
-80 -27 0
-80 -43 0
-79 -45 0
-80 -45 0
-80 -61 0
-79 -63 0
-80 -63 0
-80 -79 0
-79 -81 0
-80 -81 0
-80 -97 0
-79 -99 0
-80 -99 0
-83 -10 0
-82 -12 0
-83 -12 0
-83 -28 0
-82 -30 0
-83 -30 0
-83 -46 0
-82 -48 0
-83 -48 0
-83 -64 0
-82 -66 0
-83 -66 0
-83 -82 0
-82 -84 0
-83 -84 0
-83 -100 0
-82 -102 0
-83 -102 0
-86 -13 0
-85 -15 0
-86 -15 0
-86 -31 0
-85 -33 0
-86 -33 0
-86 -49 0
-85 -51 0
-86 -51 0
-86 -67 0
-85 -69 0
-86 -69 0
-86 -85 0
-85 -87 0
-86 -87 0
-86 -103 0
-85 -105 0
-86 -105 0
-89 -16 0
-88 -18 0
-89 -18 0
-89 -34 0
-88 -36 0
-89 -36 0
-89 -52 0
-88 -54 0
-89 -54 0
-89 -70 0
-88 -72 0
-89 -72 0
-89 -88 0
-88 -90 0
-89 -90 0
-89 -106 0
-88 -108 0
-89 -108 0
-91 -2 0
-91 -3 0
-92 -3 0
-91 -20 0
-91 -21 0
-92 -21 0
-91 -38 0
-91 -39 0
-92 -39 0
-91 -56 0
-91 -57 0
-92 -57 0
-91 -74 0
-91 -75 0
-92 -75 0
-91 -92 0
-91 -93 0
-92 -93 0
-94 -5 0
-94 -6 0
-95 -6 0
-94 -23 0
-94 -24 0
-95 -24 0
-94 -41 0
-94 -42 0
-95 -42 0
-94 -59 0
-94 -60 0
-95 -60 0
-94 -77 0
-94 -78 0
-95 -78 0
-94 -95 0
-94 -96 0
-95 -96 0
-97 -8 0
-97 -9 0
-98 -9 0
-97 -26 0
-97 -27 0
-98 -27 0
-97 -44 0
-97 -45 0
-98 -45 0
-97 -62 0
-97 -63 0
-98 -63 0
-97 -80 0
-97 -81 0
-98 -81 0
-97 -98 0
-97 -99 0
-98 -99 0
-100 -11 0
-100 -12 0
-101 -12 0
-100 -29 0
-100 -30 0
-101 -30 0
-100 -47 0
-100 -48 0
-101 -48 0
-100 -65 0
-100 -66 0
-101 -66 0
-100 -83 0
-100 -84 0
-101 -84 0
-100 -101 0
-100 -102 0
-101 -102 0
-103 -14 0
-103 -15 0
-104 -15 0
-103 -32 0
-103 -33 0
-104 -33 0
-103 -50 0
-103 -51 0
-104 -51 0
-103 -68 0
-103 -69 0
-104 -69 0
-103 -86 0
-103 -87 0
-104 -87 0
-103 -104 0
-103 -105 0
-104 -105 0
-106 -17 0
-106 -18 0
-107 -18 0
-106 -35 0
-106 -36 0
-107 -36 0
-106 -53 0
-106 -54 0
-107 -54 0
-106 -71 0
-106 -72 0
-107 -72 0
-106 -89 0
-106 -90 0
-107 -90 0
-106 -107 0
-106 -108 0
-107 -108 0
